0000000000000000
0000000000000000
0001111000000000
0000000110000000
0000000000100000
0000000000010000
0000000000010000
0000000000010000
0000000000010000
0000000000010000
0000000000010000
0011100000100000
0000011001000000
0000000110000000
0000000000000000
0000000000000000
